# Objective value = 606304
x0min 20
y0min 20
x1min 20
y1min 20
b1_reduceLturns 0
max0H 2
max0V 2
x2min 20
y2min 20
max2H 2
max2V 2
x3min 20
y3min 112
b3_reduceLturns 1
x4min 20
y4min 29
max4H 2
max4V 2
x5min 20
y5min 20
b5_reduceLturns 0
b8 0
x7_BoundBx_hminM 20
y7_BoundBx_vminM 29
x10min 71
y10LdistBeforeGateOut 0
y10LdistBeforeGateIn 0
b12 1
x11_BoundBx_hminM 34
y11_BoundBx_vminM 56
x14min 75
y14LdistBeforeGateOut 18
y14LdistBeforeGateIn 0
x15min 13
y15min 104
max15H 3
max15V 3
x16min 12
y16min 12
max16H 3
max16V 3
x17min 12
y17min 34
b17_reduceLturns 1
x18min 12
y18min 12
max18H 3
max18V 3
x19min 12
y19min 12
b19_reduceLturns 0
x20min 13
y20min 112
max20H 3
max20V 3
x21min 12
y21min 12
b21_reduceLturns 0
x22min 29
y22min 20
max22H 2
max22V 2
x23min 32
y23min 20
max23H 2
max23V 2
x24min 20
y24min 20
b24_reduceLturns 0
x26min 20
y26min 20
max26H 2
max26V 2
x27min 20
y27min 133
b27_reduceLturns 1
x28min 29
y28min 20
max28H 2
max28V 2
x29min 20
y29min 20
b29_reduceLturns 0
b31 0
x30_BoundBx_hminM 29
y30_BoundBx_vminM 20
x_CntsBoundBx40__boundbx_min 67
y_CntsBoundBx40__boundbx_min 17
y10LdistAfterGateOut 0
y10LdistAfterGateIn 0
b34 0
x33_BoundBx_hminM 29
y33_BoundBx_vminM 20
x_CntsBoundBx41__boundbx_min 71
y_CntsBoundBx41__boundbx_min 54
y14LdistAfterGateOut 0
y14LdistAfterGateIn 0
width 120
ZERO 0
UM 1
RELAXATION 20000
HGRID_OFFSET 0
VGRID_OFFSET 0
height 520
posNWell 228
yNDiffa 40
yNDiffb 192
yPDiffa 258
yPDiffb 480
yGNDb 72
yVDDa 448
x0b 42
x0a 22
y0b 72
y0a 52
x1b 42
x1a 22
y1b 72
y1a 52
xGNDb 42
xGNDa 0
yGNDa 0
b0_endline_v 0
b0_endline_h 1
x0a2 0
x0b2 114
y0a2 0
y0b2 74
x2b 42
x2a 22
y2b 164
y2a 144
b2_endline_v 1
b2_endline_h 0
x2a2 0
x2b2 44
y2a2 0
y2b2 233
x3b 42
x3a 22
y3b 164
y3a 52
x4b 42
x4a 22
y4b 173
y4a 144
b4_endline_v 1
b4_endline_h 0
x4a2 0
x4b2 44
y4a2 0
y4b2 233
x5b 42
x5a 22
y5b 164
y5a 144
x6b 50
x6a 30
y6b 290
y6a 270
b6_1V 0
b6_2V 1
xa 16
xb 50
ya 264
yb 320
x6g 40
x6gpos 1
y6g 280
y6gpos 7
x7b 42
x7a 25
y7b 167
y7a 150
x7_BoundBx_a 25
x7_BoundBx_b 42
y7_BoundBx_a 150
y7_BoundBx_b 167
y8a 167
x8b 25
x8a 25
y8b 167
b7_BoundBx__1M 0
b7_BoundBx__2M 1
b7_BoundBx__3M 0
x7_BoundBx_hM 0
y7_BoundBx_vM 6
x_CntsBoundBx22_a 25
x_CntsBoundBx22_b 42
y_CntsBoundBx22_a 150
y_CntsBoundBx22_b 167
b9_v 1
b9_h 0
x9a 23
x9b 52
y9a 140
y9b 192
x10b 94
x10a 23
y10a 140
y10b 192
x11b 39
x11a 22
y11b 283
y11a 266
x11_BoundBx_a 22
x11_BoundBx_b 39
y11_BoundBx_a 266
y11_BoundBx_b 320
y12a 303
x12b 39
x12a 22
y12b 320
b11_BoundBx__1M 1
b11_BoundBx__2M 0
b11_BoundBx__3M 0
x11_BoundBx_hM 6
y11_BoundBx_vM 0
b7_BoundBx__11_BoundBx__1 0
b7_BoundBx__11_BoundBx__2 1
b7_BoundBx__11_BoundBx__3 0
x_CntsBoundBx23_a 22
x_CntsBoundBx23_b 39
y_CntsBoundBx23_a 266
y_CntsBoundBx23_b 320
b13_v 1
b13_h 0
x13a 20
x13b 41
y13a 258
y13b 328
x14b 95
x14a 20
y14a 258
y14b 310
b7_BoundBx__14_1_24 1
b7_BoundBx__14_2_24 0
b7_BoundBx__14_3_24 0
b11_BoundBx__10_1_25 1
b11_BoundBx__10_2_25 0
b11_BoundBx__10_3_25 0
x15b 65
x15a 52
y15b 218
y15a 114
b15_endline_v 1
b15_endline_h 0
x15a2 0
x15b2 68
y15a2 0
y15b2 221
x16b 65
x16a 53
y16b 240
y16a 228
b16_endline_v 1
b16_endline_h 0
x16a2 0
x16b2 68
y16a2 0
y16b2 243
x17b 65
x17a 53
y17b 240
y17a 206
b10_16_1_26 0
b10_16_2_26 0
b10_16_3_26 1
b14_16_1_27 1
b14_16_2_27 0
b14_16_3_27 0
x18b 65
x18a 53
y18b 240
y18a 228
b18_endline_v 1
b18_endline_h 0
x18a2 0
x18b2 68
y18a2 0
y18b2 243
x19b 65
x19a 53
y19b 240
y19a 228
b10_18_1_28 0
b10_18_2_28 0
b10_18_3_28 1
b14_18_1_29 1
b14_18_2_29 0
b14_18_3_29 0
x20b 66
x20a 53
y20b 340
y20a 228
b20_endline_v 1
b20_endline_h 0
x20a2 0
x20b2 69
y20a2 0
y20b2 344
x21b 65
x21a 53
y21b 240
y21a 228
b10_smallTransWidth 0
b16_15_1_30 0
b16_15_2_30 0
b16_15_3_30 0
b10_LshapeBeforeGate 0
b10_applyS2BeforeGate 0
b15_applyExtraExtBeforeGate 0
b10_LshapeBeforeGateOut 0
b10_LshapeBeforeGateIn 0
b10_LshapeAfterGateIn 0
b10_Ushape 0
b10_LshapeAfterGateOut 0
x10_lastDiffEnc_b 52
b14_smallTransWidth 0
b18_20_1_31 0
b18_20_2_31 0
b18_20_3_31 0
b14_LshapeBeforeGate 1
b14_applyS2BeforeGate 0
b20_applyExtraExtBeforeGate 1
b14_LshapeBeforeGateOut 1
b14_LshapeBeforeGateIn 0
b14_LshapeAfterGateIn 0
b14_Ushape 1
b14_LshapeAfterGateOut 0
x14_lastDiffEnc_b 41
b15_14_1_32 1
b15_14_2_32 0
b15_14_3_32 0
b15_14_1_33 1
b15_14_2_33 0
b15_14_3_33 0
b16_10_1_34 1
b16_10_2_34 0
b16_10_3_34 0
b16_14_1_35 1
b16_14_2_35 0
b16_14_3_35 0
b18_10_1_36 1
b18_10_2_36 0
b18_10_3_36 0
b18_14_1_37 1
b18_14_2_37 0
b18_14_3_37 0
b20_10_1_38 1
b20_10_2_38 0
b20_10_3_38 0
b20_10_1_39 1
b20_10_2_39 0
b20_10_3_39 0
x22b 98
x22a 69
y22b 170
y22a 150
b22_endline_v 1
b22_endline_h 0
x22a2 67
x22b2 100
y22a2 92
y22b2 174
b0_22_1 0
b0_22_2 0
b0_22_3 1
b2_22_1 1
b2_22_2 0
b2_22_3 0
b4_22_1 1
b4_22_2 0
b4_22_3 0
x23b 96
x23a 64
y23b 170
y23a 150
b23_endline_v 1
b23_endline_h 0
x23a2 62
x23b2 98
y23a2 146
y23b2 174
b0_23_1 0
b0_23_2 1
b0_23_3 0
b2_23_1 1
b2_23_2 0
b2_23_3 0
b4_23_1 1
b4_23_2 0
b4_23_3 0
x24b 89
x24a 69
y24b 170
y24a 150
x25b 90
x25a 70
y25b 170
y25a 150
b25_1V 1
b25_2V 0
x25g 80
x25gpos 2
y25g 160
y25gpos 4
x26b 96
x26a 76
y26b 283
y26a 263
b26_endline_v 1
b26_endline_h 0
x26a2 6
x26b2 98
y26a2 259
y26b2 287
b0_26_1 0
b0_26_2 1
b0_26_3 0
b2_26_1 0
b2_26_2 1
b2_26_3 0
b4_26_1 0
b4_26_2 1
b4_26_3 0
x27b 96
x27a 76
y27b 283
y27a 150
x28b 99
x28a 70
y28b 283
y28a 263
b28_endline_v 1
b28_endline_h 0
x28a2 6
x28b2 101
y28a2 259
y28b2 287
b0_28_1 0
b0_28_2 1
b0_28_3 0
b2_28_1 0
b2_28_2 1
b2_28_3 0
b4_28_1 0
b4_28_2 1
b4_28_3 0
x29b 96
x29a 76
y29b 283
y29a 263
x30b 92
x30a 75
y30b 167
y30a 150
x30_BoundBx_a 75
x30_BoundBx_b 92
y30_BoundBx_a 150
y30_BoundBx_b 167
y31a 167
x31b 75
x31a 75
y31b 167
b30_BoundBx__1M 1
b30_BoundBx__2M 0
b30_BoundBx__3M 0
x30_BoundBx_hM 6
y30_BoundBx_vM 0
b7_BoundBx__30_BoundBx__1 1
b7_BoundBx__30_BoundBx__2 0
b7_BoundBx__30_BoundBx__3 0
b11_BoundBx__30_BoundBx__1 0
b11_BoundBx__30_BoundBx__2 1
b11_BoundBx__30_BoundBx__3 0
x_CntsBoundBx40_a 75
x_CntsBoundBx40_b 92
y_CntsBoundBx40_a 150
y_CntsBoundBx40_b 167
b32_v 1
b32_h 0
x32a 65
x32b 94
y32a 140
y32b 192
y_CntsBoundBx40__boundbx_a 150
y_CntsBoundBx40__boundbx_b 167
b10_LshapeAfterGate 0
b10_applyS2AfterGate 0
b15_applyExtraExtAfterGate 0
x33b 93
x33a 76
y33b 283
y33a 266
x33_BoundBx_a 76
x33_BoundBx_b 93
y33_BoundBx_a 266
y33_BoundBx_b 283
y34a 283
x34b 76
x34a 76
y34b 283
b33_BoundBx__1M 1
b33_BoundBx__2M 0
b33_BoundBx__3M 0
x33_BoundBx_hM 6
y33_BoundBx_vM 0
b7_BoundBx__33_BoundBx__1 0
b7_BoundBx__33_BoundBx__2 1
b7_BoundBx__33_BoundBx__3 0
b30_BoundBx__33_BoundBx__1 0
b30_BoundBx__33_BoundBx__2 1
b30_BoundBx__33_BoundBx__3 0
b11_BoundBx__33_BoundBx__1 1
b11_BoundBx__33_BoundBx__2 0
b11_BoundBx__33_BoundBx__3 0
x_CntsBoundBx41_a 76
x_CntsBoundBx41_b 93
y_CntsBoundBx41_a 266
y_CntsBoundBx41_b 283
b35_v 1
b35_h 0
x35a 74
x35b 95
y35a 258
y35b 310
y_CntsBoundBx41__boundbx_a 266
y_CntsBoundBx41__boundbx_b 320
b14_LshapeAfterGate 0
b14_applyS2AfterGate 0
b20_applyExtraExtAfterGate 1
b30_BoundBx__14_1_42 1
b30_BoundBx__14_2_42 0
b30_BoundBx__14_3_42 0
b33_BoundBx__10_1_43 1
b33_BoundBx__10_2_43 0
b33_BoundBx__10_3_43 0
width_gpos 3
+ 0
- 0
12 0
20 0
